data/lp_files/pEFS/57_7.lp
\ Model foo
\ LP format - for model browsing. Use MPS format to capture full model detail.
Minimize
  z
Subject To
 allocateEach[1]: x[1,1] + x[2,1] + x[3,1] = 1
 allocateEach[2]: x[1,2] + x[2,2] + x[3,2] = 1
 allocateEach[3]: x[1,3] + x[2,3] + x[3,3] = 1
 allocateEach[4]: x[1,4] + x[2,4] + x[3,4] = 1
 allocateEach[5]: x[1,5] + x[2,5] + x[3,5] = 1
 allocateEach[6]: x[1,6] + x[2,6] + x[3,6] = 1
 allocateEach[7]: x[1,7] + x[2,7] + x[3,7] = 1
 allocateEach[8]: x[1,8] + x[2,8] + x[3,8] = 1
 allocateEach[9]: x[1,9] + x[2,9] + x[3,9] = 1
 allocateEach[10]: x[1,10] + x[2,10] + x[3,10] = 1
 allocateEach[11]: x[1,11] + x[2,11] + x[3,11] = 1
 allocateEach[12]: x[1,12] + x[2,12] + x[3,12] = 1
 allocateEach[13]: x[1,13] + x[2,13] + x[3,13] = 1
 allocateEach[14]: x[1,14] + x[2,14] + x[3,14] = 1
 allocateEach[15]: x[1,15] + x[2,15] + x[3,15] = 1
 allocateEach[16]: x[1,16] + x[2,16] + x[3,16] = 1
 allocateEach[17]: x[1,17] + x[2,17] + x[3,17] = 1
 allocateAllCash: cashProportion[1] + cashProportion[2] + cashProportion[3]
   = 1
 findWorstP[1,2]: z + 0.0646321889845206 cashProportion[1]
   - 0.0646321889845206 cashProportion[2] + 0.00836986847349542 x[1,1]
   + 0.0955479193821163 x[1,2] + 0.00966251225318583 x[1,3]
   + 0.0816843148449366 x[1,4] + 0.0337164585869249 x[1,5]
   + 0.0715801493003566 x[1,6] + 0.0921008693029418 x[1,7]
   + 0.1066969719819461 x[1,8] + 0.0979823985005332 x[1,9]
   + 0.0233537642864068 x[1,10] + 0.0447147027457908 x[1,11]
   + 0.086822573869206 x[1,12] + 0.08864304719227 x[1,13]
   + 0.0420863270604203 x[1,14] + 0.0206715284435492 x[1,15]
   + 0.0307541499251344 x[1,16] + 9.8025486626522888e-04 x[1,17]
   - 0.00836986847349542 x[2,1] - 0.0955479193821163 x[2,2]
   - 0.00966251225318583 x[2,3] - 0.0816843148449366 x[2,4]
   - 0.0337164585869249 x[2,5] - 0.0715801493003566 x[2,6]
   - 0.0921008693029418 x[2,7] - 0.1066969719819461 x[2,8]
   - 0.0979823985005332 x[2,9] - 0.0233537642864068 x[2,10]
   - 0.0447147027457908 x[2,11] - 0.086822573869206 x[2,12]
   - 0.08864304719227 x[2,13] - 0.0420863270604203 x[2,14]
   - 0.0206715284435492 x[2,15] - 0.0307541499251344 x[2,16]
   - 9.8025486626522888e-04 x[2,17] >= 0
 findWorstP[1,3]: z + 0.0646321889845206 cashProportion[1]
   - 0.0646321889845206 cashProportion[3] + 0.00836986847349542 x[1,1]
   + 0.0955479193821163 x[1,2] + 0.00966251225318583 x[1,3]
   + 0.0816843148449366 x[1,4] + 0.0337164585869249 x[1,5]
   + 0.0715801493003566 x[1,6] + 0.0921008693029418 x[1,7]
   + 0.1066969719819461 x[1,8] + 0.0979823985005332 x[1,9]
   + 0.0233537642864068 x[1,10] + 0.0447147027457908 x[1,11]
   + 0.086822573869206 x[1,12] + 0.08864304719227 x[1,13]
   + 0.0420863270604203 x[1,14] + 0.0206715284435492 x[1,15]
   + 0.0307541499251344 x[1,16] + 9.8025486626522888e-04 x[1,17]
   - 0.00836986847349542 x[3,1] - 0.0955479193821163 x[3,2]
   - 0.00966251225318583 x[3,3] - 0.0816843148449366 x[3,4]
   - 0.0337164585869249 x[3,5] - 0.0715801493003566 x[3,6]
   - 0.0921008693029418 x[3,7] - 0.1066969719819461 x[3,8]
   - 0.0979823985005332 x[3,9] - 0.0233537642864068 x[3,10]
   - 0.0447147027457908 x[3,11] - 0.086822573869206 x[3,12]
   - 0.08864304719227 x[3,13] - 0.0420863270604203 x[3,14]
   - 0.0206715284435492 x[3,15] - 0.0307541499251344 x[3,16]
   - 9.8025486626522888e-04 x[3,17] >= 0
 findWorstP[2,1]: z - 0.0624284673811258 cashProportion[1]
   + 0.0624284673811258 cashProportion[2] - 0.0341483716574758 x[1,1]
   - 0.095265841223598 x[1,2] - 0.0850379773176569 x[1,3]
   - 0.1034335657059619 x[1,4] - 0.0138487150140464 x[1,5]
   - 0.0238580792841536 x[1,6] - 0.0055561335969202 x[1,7]
   - 0.0108625533243159 x[1,8] - 0.1024451149724274 x[1,9]
   - 0.0805743418999064 x[1,10] - 0.0590677348871085 x[1,11]
   - 0.0278222869628551 x[1,12] - 0.0523982936218916 x[1,13]
   - 0.00415149308084487 x[1,14] - 0.1008115700759546 x[1,15]
   - 0.0776089896993029 x[1,16] - 0.0606804702944543 x[1,17]
   + 0.0341483716574758 x[2,1] + 0.095265841223598 x[2,2]
   + 0.0850379773176569 x[2,3] + 0.1034335657059619 x[2,4]
   + 0.0138487150140464 x[2,5] + 0.0238580792841536 x[2,6]
   + 0.0055561335969202 x[2,7] + 0.0108625533243159 x[2,8]
   + 0.1024451149724274 x[2,9] + 0.0805743418999064 x[2,10]
   + 0.0590677348871085 x[2,11] + 0.0278222869628551 x[2,12]
   + 0.0523982936218916 x[2,13] + 0.00415149308084487 x[2,14]
   + 0.1008115700759546 x[2,15] + 0.0776089896993029 x[2,16]
   + 0.0606804702944543 x[2,17] >= 0
 findWorstP[2,3]: z + 0.0624284673811258 cashProportion[2]
   - 0.0624284673811258 cashProportion[3] + 0.0341483716574758 x[2,1]
   + 0.095265841223598 x[2,2] + 0.0850379773176569 x[2,3]
   + 0.1034335657059619 x[2,4] + 0.0138487150140464 x[2,5]
   + 0.0238580792841536 x[2,6] + 0.0055561335969202 x[2,7]
   + 0.0108625533243159 x[2,8] + 0.1024451149724274 x[2,9]
   + 0.0805743418999064 x[2,10] + 0.0590677348871085 x[2,11]
   + 0.0278222869628551 x[2,12] + 0.0523982936218916 x[2,13]
   + 0.00415149308084487 x[2,14] + 0.1008115700759546 x[2,15]
   + 0.0776089896993029 x[2,16] + 0.0606804702944543 x[2,17]
   - 0.0341483716574758 x[3,1] - 0.095265841223598 x[3,2]
   - 0.0850379773176569 x[3,3] - 0.1034335657059619 x[3,4]
   - 0.0138487150140464 x[3,5] - 0.0238580792841536 x[3,6]
   - 0.0055561335969202 x[3,7] - 0.0108625533243159 x[3,8]
   - 0.1024451149724274 x[3,9] - 0.0805743418999064 x[3,10]
   - 0.0590677348871085 x[3,11] - 0.0278222869628551 x[3,12]
   - 0.0523982936218916 x[3,13] - 0.00415149308084487 x[3,14]
   - 0.1008115700759546 x[3,15] - 0.0776089896993029 x[3,16]
   - 0.0606804702944543 x[3,17] >= 0
 findWorstP[3,1]: z - 0.0572650225242422 cashProportion[1]
   + 0.0572650225242422 cashProportion[3] - 0.0853916927540658 x[1,1]
   - 0.0789493777200886 x[1,2] - 0.0952031 x[1,3]
   - 0.0145930365732611 x[1,4] - 0.038148049171566 x[1,5]
   - 0.0840077880430633 x[1,6] - 0.0345212644116973 x[1,7]
   - 0.071800794074979 x[1,8] - 0.072974727036726 x[1,9]
   - 0.0838264488050699 x[1,10] - 0.0177712453233565 x[1,11]
   - 0.0230014507139039 x[1,12] - 0.063525998320226 x[1,13]
   - 0.0418320989539589 x[1,14] - 0.0164159731236161 x[1,15]
   - 0.0926070855921203 x[1,16] - 0.0281648469115065 x[1,17]
   + 0.0853916927540658 x[3,1] + 0.0789493777200886 x[3,2]
   + 0.0952031 x[3,3] + 0.0145930365732611 x[3,4]
   + 0.038148049171566 x[3,5] + 0.0840077880430633 x[3,6]
   + 0.0345212644116973 x[3,7] + 0.071800794074979 x[3,8]
   + 0.072974727036726 x[3,9] + 0.0838264488050699 x[3,10]
   + 0.0177712453233565 x[3,11] + 0.0230014507139039 x[3,12]
   + 0.063525998320226 x[3,13] + 0.0418320989539589 x[3,14]
   + 0.0164159731236161 x[3,15] + 0.0926070855921203 x[3,16]
   + 0.0281648469115065 x[3,17] >= 0
 findWorstP[3,2]: z - 0.0572650225242422 cashProportion[2]
   + 0.0572650225242422 cashProportion[3] - 0.0853916927540658 x[2,1]
   - 0.0789493777200886 x[2,2] - 0.0952031 x[2,3]
   - 0.0145930365732611 x[2,4] - 0.038148049171566 x[2,5]
   - 0.0840077880430633 x[2,6] - 0.0345212644116973 x[2,7]
   - 0.071800794074979 x[2,8] - 0.072974727036726 x[2,9]
   - 0.0838264488050699 x[2,10] - 0.0177712453233565 x[2,11]
   - 0.0230014507139039 x[2,12] - 0.063525998320226 x[2,13]
   - 0.0418320989539589 x[2,14] - 0.0164159731236161 x[2,15]
   - 0.0926070855921203 x[2,16] - 0.0281648469115065 x[2,17]
   + 0.0853916927540658 x[3,1] + 0.0789493777200886 x[3,2]
   + 0.0952031 x[3,3] + 0.0145930365732611 x[3,4]
   + 0.038148049171566 x[3,5] + 0.0840077880430633 x[3,6]
   + 0.0345212644116973 x[3,7] + 0.071800794074979 x[3,8]
   + 0.072974727036726 x[3,9] + 0.0838264488050699 x[3,10]
   + 0.0177712453233565 x[3,11] + 0.0230014507139039 x[3,12]
   + 0.063525998320226 x[3,13] + 0.0418320989539589 x[3,14]
   + 0.0164159731236161 x[3,15] + 0.0926070855921203 x[3,16]
   + 0.0281648469115065 x[3,17] >= 0
Bounds
 z <= 1
 -infinity <= cashProportion[1] <= 1
 -infinity <= cashProportion[2] <= 1
 -infinity <= cashProportion[3] <= 1
Binaries
 x[1,1] x[1,2] x[1,3] x[1,4] x[1,5] x[1,6] x[1,7] x[1,8] x[1,9] x[1,10]
 x[1,11] x[1,12] x[1,13] x[1,14] x[1,15] x[1,16] x[1,17] x[2,1] x[2,2]
 x[2,3] x[2,4] x[2,5] x[2,6] x[2,7] x[2,8] x[2,9] x[2,10] x[2,11] x[2,12]
 x[2,13] x[2,14] x[2,15] x[2,16] x[2,17] x[3,1] x[3,2] x[3,3] x[3,4] x[3,5]
 x[3,6] x[3,7] x[3,8] x[3,9] x[3,10] x[3,11] x[3,12] x[3,13] x[3,14]
 x[3,15] x[3,16] x[3,17]
End
