data/mps_files/q3/57_7.mps
NAME foo
ROWS
 N  OBJ
 E  allocateEach[1]
 E  allocateEach[2]
 E  allocateEach[3]
 E  allocateEach[4]
 E  allocateEach[5]
 E  allocateEach[6]
 E  allocateEach[7]
 E  allocateEach[8]
 E  allocateEach[9]
 E  allocateEach[10]
 E  allocateEach[11]
 E  allocateEach[12]
 E  allocateEach[13]
 E  allocateEach[14]
 E  allocateEach[15]
 E  allocateEach[16]
 E  allocateEach[17]
 E  allocateAllCash
 G  findWorstP[1,2]
 G  findWorstP[1,3]
 G  findWorstP[2,1]
 G  findWorstP[2,3]
 G  findWorstP[3,1]
 G  findWorstP[3,2]
COLUMNS
    z         OBJ       1
    z         findWorstP[1,2]  1
    z         findWorstP[1,3]  1
    z         findWorstP[2,1]  1
    z         findWorstP[2,3]  1
    z         findWorstP[3,1]  1
    z         findWorstP[3,2]  1
    cashProportion[1]  allocateAllCash  1
    cashProportion[1]  findWorstP[1,2]  0.0646321889845206
    cashProportion[1]  findWorstP[1,3]  0.0646321889845206
    cashProportion[1]  findWorstP[2,1]  -6.2428467381125806e-02
    cashProportion[1]  findWorstP[3,1]  -5.7265022524242204e-02
    cashProportion[2]  allocateAllCash  1
    cashProportion[2]  findWorstP[1,2]  -0.0646321889845206
    cashProportion[2]  findWorstP[2,1]  6.2428467381125806e-02
    cashProportion[2]  findWorstP[2,3]  6.2428467381125806e-02
    cashProportion[2]  findWorstP[3,2]  -5.7265022524242204e-02
    cashProportion[3]  allocateAllCash  1
    cashProportion[3]  findWorstP[1,3]  -0.0646321889845206
    cashProportion[3]  findWorstP[2,3]  -6.2428467381125806e-02
    cashProportion[3]  findWorstP[3,1]  5.7265022524242204e-02
    cashProportion[3]  findWorstP[3,2]  5.7265022524242204e-02
    MARKER    'MARKER'                 'INTORG'
    x[1,1]    allocateEach[1]  1
    x[1,1]    findWorstP[1,2]  8.3698684734954173e-03
    x[1,1]    findWorstP[1,3]  8.3698684734954173e-03
    x[1,1]    findWorstP[2,1]  -3.4148371657475814e-02
    x[1,1]    findWorstP[3,1]  -8.5391692754065815e-02
    x[1,2]    allocateEach[2]  1
    x[1,2]    findWorstP[1,2]  9.5547919382116278e-02
    x[1,2]    findWorstP[1,3]  9.5547919382116278e-02
    x[1,2]    findWorstP[2,1]  -9.5265841223597963e-02
    x[1,2]    findWorstP[3,1]  -7.8949377720088573e-02
    x[1,3]    allocateEach[3]  1
    x[1,3]    findWorstP[1,2]  9.6625122531858280e-03
    x[1,3]    findWorstP[1,3]  9.6625122531858280e-03
    x[1,3]    findWorstP[2,1]  -8.5037977317656860e-02
    x[1,3]    findWorstP[3,1]  -9.5203099946552655e-02
    x[1,4]    allocateEach[4]  1
    x[1,4]    findWorstP[1,2]  0.0816843148449366
    x[1,4]    findWorstP[1,3]  0.0816843148449366
    x[1,4]    findWorstP[2,1]  -1.0343356570596193e-01
    x[1,4]    findWorstP[3,1]  -1.4593036573261053e-02
    x[1,5]    allocateEach[5]  1
    x[1,5]    findWorstP[1,2]  3.3716458586924909e-02
    x[1,5]    findWorstP[1,3]  3.3716458586924909e-02
    x[1,5]    findWorstP[2,1]  -1.3848715014046406e-02
    x[1,5]    findWorstP[3,1]  -3.8148049171566008e-02
    x[1,6]    allocateEach[6]  1
    x[1,6]    findWorstP[1,2]  7.1580149300356555e-02
    x[1,6]    findWorstP[1,3]  7.1580149300356555e-02
    x[1,6]    findWorstP[2,1]  -2.3858079284153576e-02
    x[1,6]    findWorstP[3,1]  -8.4007788043063289e-02
    x[1,7]    allocateEach[7]  1
    x[1,7]    findWorstP[1,2]  9.2100869302941840e-02
    x[1,7]    findWorstP[1,3]  9.2100869302941840e-02
    x[1,7]    findWorstP[2,1]  -5.5561335969201960e-03
    x[1,7]    findWorstP[3,1]  -3.4521264411697339e-02
    x[1,8]    allocateEach[8]  1
    x[1,8]    findWorstP[1,2]  1.0669697198194608e-01
    x[1,8]    findWorstP[1,3]  1.0669697198194608e-01
    x[1,8]    findWorstP[2,1]  -1.0862553324315889e-02
    x[1,8]    findWorstP[3,1]  -0.071800794074979
    x[1,9]    allocateEach[9]  1
    x[1,9]    findWorstP[1,2]  9.7982398500533210e-02
    x[1,9]    findWorstP[1,3]  9.7982398500533210e-02
    x[1,9]    findWorstP[2,1]  -1.0244511497242743e-01
    x[1,9]    findWorstP[3,1]  -7.2974727036725959e-02
    x[1,10]   allocateEach[10]  1
    x[1,10]   findWorstP[1,2]  2.3353764286406772e-02
    x[1,10]   findWorstP[1,3]  2.3353764286406772e-02
    x[1,10]   findWorstP[2,1]  -8.0574341899906365e-02
    x[1,10]   findWorstP[3,1]  -8.3826448805069856e-02
    x[1,11]   allocateEach[11]  1
    x[1,11]   findWorstP[1,2]  4.4714702745790827e-02
    x[1,11]   findWorstP[1,3]  4.4714702745790827e-02
    x[1,11]   findWorstP[2,1]  -5.9067734887108522e-02
    x[1,11]   findWorstP[3,1]  -1.7771245323356496e-02
    x[1,12]   allocateEach[12]  1
    x[1,12]   findWorstP[1,2]  0.086822573869206
    x[1,12]   findWorstP[1,3]  0.086822573869206
    x[1,12]   findWorstP[2,1]  -2.7822286962855068e-02
    x[1,12]   findWorstP[3,1]  -2.3001450713903946e-02
    x[1,13]   allocateEach[13]  1
    x[1,13]   findWorstP[1,2]  8.8643047192269980e-02
    x[1,13]   findWorstP[1,3]  8.8643047192269980e-02
    x[1,13]   findWorstP[2,1]  -5.2398293621891592e-02
    x[1,13]   findWorstP[3,1]  -0.063525998320226
    x[1,14]   allocateEach[14]  1
    x[1,14]   findWorstP[1,2]  4.2086327060420321e-02
    x[1,14]   findWorstP[1,3]  4.2086327060420321e-02
    x[1,14]   findWorstP[2,1]  -4.1514930808448655e-03
    x[1,14]   findWorstP[3,1]  -4.1832098953958924e-02
    x[1,15]   allocateEach[15]  1
    x[1,15]   findWorstP[1,2]  2.0671528443549168e-02
    x[1,15]   findWorstP[1,3]  2.0671528443549168e-02
    x[1,15]   findWorstP[2,1]  -1.0081157007595465e-01
    x[1,15]   findWorstP[3,1]  -1.6415973123616093e-02
    x[1,16]   allocateEach[16]  1
    x[1,16]   findWorstP[1,2]  3.0754149925134377e-02
    x[1,16]   findWorstP[1,3]  3.0754149925134377e-02
    x[1,16]   findWorstP[2,1]  -0.0776089896993029
    x[1,16]   findWorstP[3,1]  -9.2607085592120345e-02
    x[1,17]   allocateEach[17]  1
    x[1,17]   findWorstP[1,2]  9.8025486626522888e-04
    x[1,17]   findWorstP[1,3]  9.8025486626522888e-04
    x[1,17]   findWorstP[2,1]  -6.0680470294454281e-02
    x[1,17]   findWorstP[3,1]  -2.8164846911506451e-02
    x[2,1]    allocateEach[1]  1
    x[2,1]    findWorstP[1,2]  -8.3698684734954173e-03
    x[2,1]    findWorstP[2,1]  3.4148371657475814e-02
    x[2,1]    findWorstP[2,3]  3.4148371657475814e-02
    x[2,1]    findWorstP[3,2]  -8.5391692754065815e-02
    x[2,2]    allocateEach[2]  1
    x[2,2]    findWorstP[1,2]  -9.5547919382116278e-02
    x[2,2]    findWorstP[2,1]  9.5265841223597963e-02
    x[2,2]    findWorstP[2,3]  9.5265841223597963e-02
    x[2,2]    findWorstP[3,2]  -7.8949377720088573e-02
    x[2,3]    allocateEach[3]  1
    x[2,3]    findWorstP[1,2]  -9.6625122531858280e-03
    x[2,3]    findWorstP[2,1]  8.5037977317656860e-02
    x[2,3]    findWorstP[2,3]  8.5037977317656860e-02
    x[2,3]    findWorstP[3,2]  -9.5203099946552655e-02
    x[2,4]    allocateEach[4]  1
    x[2,4]    findWorstP[1,2]  -0.0816843148449366
    x[2,4]    findWorstP[2,1]  1.0343356570596193e-01
    x[2,4]    findWorstP[2,3]  1.0343356570596193e-01
    x[2,4]    findWorstP[3,2]  -1.4593036573261053e-02
    x[2,5]    allocateEach[5]  1
    x[2,5]    findWorstP[1,2]  -3.3716458586924909e-02
    x[2,5]    findWorstP[2,1]  1.3848715014046406e-02
    x[2,5]    findWorstP[2,3]  1.3848715014046406e-02
    x[2,5]    findWorstP[3,2]  -3.8148049171566008e-02
    x[2,6]    allocateEach[6]  1
    x[2,6]    findWorstP[1,2]  -7.1580149300356555e-02
    x[2,6]    findWorstP[2,1]  2.3858079284153576e-02
    x[2,6]    findWorstP[2,3]  2.3858079284153576e-02
    x[2,6]    findWorstP[3,2]  -8.4007788043063289e-02
    x[2,7]    allocateEach[7]  1
    x[2,7]    findWorstP[1,2]  -9.2100869302941840e-02
    x[2,7]    findWorstP[2,1]  5.5561335969201960e-03
    x[2,7]    findWorstP[2,3]  5.5561335969201960e-03
    x[2,7]    findWorstP[3,2]  -3.4521264411697339e-02
    x[2,8]    allocateEach[8]  1
    x[2,8]    findWorstP[1,2]  -1.0669697198194608e-01
    x[2,8]    findWorstP[2,1]  1.0862553324315889e-02
    x[2,8]    findWorstP[2,3]  1.0862553324315889e-02
    x[2,8]    findWorstP[3,2]  -0.071800794074979
    x[2,9]    allocateEach[9]  1
    x[2,9]    findWorstP[1,2]  -9.7982398500533210e-02
    x[2,9]    findWorstP[2,1]  1.0244511497242743e-01
    x[2,9]    findWorstP[2,3]  1.0244511497242743e-01
    x[2,9]    findWorstP[3,2]  -7.2974727036725959e-02
    x[2,10]   allocateEach[10]  1
    x[2,10]   findWorstP[1,2]  -2.3353764286406772e-02
    x[2,10]   findWorstP[2,1]  8.0574341899906365e-02
    x[2,10]   findWorstP[2,3]  8.0574341899906365e-02
    x[2,10]   findWorstP[3,2]  -8.3826448805069856e-02
    x[2,11]   allocateEach[11]  1
    x[2,11]   findWorstP[1,2]  -4.4714702745790827e-02
    x[2,11]   findWorstP[2,1]  5.9067734887108522e-02
    x[2,11]   findWorstP[2,3]  5.9067734887108522e-02
    x[2,11]   findWorstP[3,2]  -1.7771245323356496e-02
    x[2,12]   allocateEach[12]  1
    x[2,12]   findWorstP[1,2]  -0.086822573869206
    x[2,12]   findWorstP[2,1]  2.7822286962855068e-02
    x[2,12]   findWorstP[2,3]  2.7822286962855068e-02
    x[2,12]   findWorstP[3,2]  -2.3001450713903946e-02
    x[2,13]   allocateEach[13]  1
    x[2,13]   findWorstP[1,2]  -8.8643047192269980e-02
    x[2,13]   findWorstP[2,1]  5.2398293621891592e-02
    x[2,13]   findWorstP[2,3]  5.2398293621891592e-02
    x[2,13]   findWorstP[3,2]  -0.063525998320226
    x[2,14]   allocateEach[14]  1
    x[2,14]   findWorstP[1,2]  -4.2086327060420321e-02
    x[2,14]   findWorstP[2,1]  4.1514930808448655e-03
    x[2,14]   findWorstP[2,3]  4.1514930808448655e-03
    x[2,14]   findWorstP[3,2]  -4.1832098953958924e-02
    x[2,15]   allocateEach[15]  1
    x[2,15]   findWorstP[1,2]  -2.0671528443549168e-02
    x[2,15]   findWorstP[2,1]  1.0081157007595465e-01
    x[2,15]   findWorstP[2,3]  1.0081157007595465e-01
    x[2,15]   findWorstP[3,2]  -1.6415973123616093e-02
    x[2,16]   allocateEach[16]  1
    x[2,16]   findWorstP[1,2]  -3.0754149925134377e-02
    x[2,16]   findWorstP[2,1]  0.0776089896993029
    x[2,16]   findWorstP[2,3]  0.0776089896993029
    x[2,16]   findWorstP[3,2]  -9.2607085592120345e-02
    x[2,17]   allocateEach[17]  1
    x[2,17]   findWorstP[1,2]  -9.8025486626522888e-04
    x[2,17]   findWorstP[2,1]  6.0680470294454281e-02
    x[2,17]   findWorstP[2,3]  6.0680470294454281e-02
    x[2,17]   findWorstP[3,2]  -2.8164846911506451e-02
    x[3,1]    allocateEach[1]  1
    x[3,1]    findWorstP[1,3]  -8.3698684734954173e-03
    x[3,1]    findWorstP[2,3]  -3.4148371657475814e-02
    x[3,1]    findWorstP[3,1]  8.5391692754065815e-02
    x[3,1]    findWorstP[3,2]  8.5391692754065815e-02
    x[3,2]    allocateEach[2]  1
    x[3,2]    findWorstP[1,3]  -9.5547919382116278e-02
    x[3,2]    findWorstP[2,3]  -9.5265841223597963e-02
    x[3,2]    findWorstP[3,1]  7.8949377720088573e-02
    x[3,2]    findWorstP[3,2]  7.8949377720088573e-02
    x[3,3]    allocateEach[3]  1
    x[3,3]    findWorstP[1,3]  -9.6625122531858280e-03
    x[3,3]    findWorstP[2,3]  -8.5037977317656860e-02
    x[3,3]    findWorstP[3,1]  9.5203099946552655e-02
    x[3,3]    findWorstP[3,2]  9.5203099946552655e-02
    x[3,4]    allocateEach[4]  1
    x[3,4]    findWorstP[1,3]  -0.0816843148449366
    x[3,4]    findWorstP[2,3]  -1.0343356570596193e-01
    x[3,4]    findWorstP[3,1]  1.4593036573261053e-02
    x[3,4]    findWorstP[3,2]  1.4593036573261053e-02
    x[3,5]    allocateEach[5]  1
    x[3,5]    findWorstP[1,3]  -3.3716458586924909e-02
    x[3,5]    findWorstP[2,3]  -1.3848715014046406e-02
    x[3,5]    findWorstP[3,1]  3.8148049171566008e-02
    x[3,5]    findWorstP[3,2]  3.8148049171566008e-02
    x[3,6]    allocateEach[6]  1
    x[3,6]    findWorstP[1,3]  -7.1580149300356555e-02
    x[3,6]    findWorstP[2,3]  -2.3858079284153576e-02
    x[3,6]    findWorstP[3,1]  8.4007788043063289e-02
    x[3,6]    findWorstP[3,2]  8.4007788043063289e-02
    x[3,7]    allocateEach[7]  1
    x[3,7]    findWorstP[1,3]  -9.2100869302941840e-02
    x[3,7]    findWorstP[2,3]  -5.5561335969201960e-03
    x[3,7]    findWorstP[3,1]  3.4521264411697339e-02
    x[3,7]    findWorstP[3,2]  3.4521264411697339e-02
    x[3,8]    allocateEach[8]  1
    x[3,8]    findWorstP[1,3]  -1.0669697198194608e-01
    x[3,8]    findWorstP[2,3]  -1.0862553324315889e-02
    x[3,8]    findWorstP[3,1]  0.071800794074979
    x[3,8]    findWorstP[3,2]  0.071800794074979
    x[3,9]    allocateEach[9]  1
    x[3,9]    findWorstP[1,3]  -9.7982398500533210e-02
    x[3,9]    findWorstP[2,3]  -1.0244511497242743e-01
    x[3,9]    findWorstP[3,1]  7.2974727036725959e-02
    x[3,9]    findWorstP[3,2]  7.2974727036725959e-02
    x[3,10]   allocateEach[10]  1
    x[3,10]   findWorstP[1,3]  -2.3353764286406772e-02
    x[3,10]   findWorstP[2,3]  -8.0574341899906365e-02
    x[3,10]   findWorstP[3,1]  8.3826448805069856e-02
    x[3,10]   findWorstP[3,2]  8.3826448805069856e-02
    x[3,11]   allocateEach[11]  1
    x[3,11]   findWorstP[1,3]  -4.4714702745790827e-02
    x[3,11]   findWorstP[2,3]  -5.9067734887108522e-02
    x[3,11]   findWorstP[3,1]  1.7771245323356496e-02
    x[3,11]   findWorstP[3,2]  1.7771245323356496e-02
    x[3,12]   allocateEach[12]  1
    x[3,12]   findWorstP[1,3]  -0.086822573869206
    x[3,12]   findWorstP[2,3]  -2.7822286962855068e-02
    x[3,12]   findWorstP[3,1]  2.3001450713903946e-02
    x[3,12]   findWorstP[3,2]  2.3001450713903946e-02
    x[3,13]   allocateEach[13]  1
    x[3,13]   findWorstP[1,3]  -8.8643047192269980e-02
    x[3,13]   findWorstP[2,3]  -5.2398293621891592e-02
    x[3,13]   findWorstP[3,1]  0.063525998320226
    x[3,13]   findWorstP[3,2]  0.063525998320226
    x[3,14]   allocateEach[14]  1
    x[3,14]   findWorstP[1,3]  -4.2086327060420321e-02
    x[3,14]   findWorstP[2,3]  -4.1514930808448655e-03
    x[3,14]   findWorstP[3,1]  4.1832098953958924e-02
    x[3,14]   findWorstP[3,2]  4.1832098953958924e-02
    x[3,15]   allocateEach[15]  1
    x[3,15]   findWorstP[1,3]  -2.0671528443549168e-02
    x[3,15]   findWorstP[2,3]  -1.0081157007595465e-01
    x[3,15]   findWorstP[3,1]  1.6415973123616093e-02
    x[3,15]   findWorstP[3,2]  1.6415973123616093e-02
    x[3,16]   allocateEach[16]  1
    x[3,16]   findWorstP[1,3]  -3.0754149925134377e-02
    x[3,16]   findWorstP[2,3]  -0.0776089896993029
    x[3,16]   findWorstP[3,1]  9.2607085592120345e-02
    x[3,16]   findWorstP[3,2]  9.2607085592120345e-02
    x[3,17]   allocateEach[17]  1
    x[3,17]   findWorstP[1,3]  -9.8025486626522888e-04
    x[3,17]   findWorstP[2,3]  -6.0680470294454281e-02
    x[3,17]   findWorstP[3,1]  2.8164846911506451e-02
    x[3,17]   findWorstP[3,2]  2.8164846911506451e-02
    MARKER    'MARKER'                 'INTEND'
RHS
    RHS1      allocateEach[1]  1
    RHS1      allocateEach[2]  1
    RHS1      allocateEach[3]  1
    RHS1      allocateEach[4]  1
    RHS1      allocateEach[5]  1
    RHS1      allocateEach[6]  1
    RHS1      allocateEach[7]  1
    RHS1      allocateEach[8]  1
    RHS1      allocateEach[9]  1
    RHS1      allocateEach[10]  1
    RHS1      allocateEach[11]  1
    RHS1      allocateEach[12]  1
    RHS1      allocateEach[13]  1
    RHS1      allocateEach[14]  1
    RHS1      allocateEach[15]  1
    RHS1      allocateEach[16]  1
    RHS1      allocateEach[17]  1
    RHS1      allocateAllCash  1
BOUNDS
 UP BND1      z         1
 MI BND1      cashProportion[1]
 UP BND1      cashProportion[1]  1
 MI BND1      cashProportion[2]
 UP BND1      cashProportion[2]  1
 MI BND1      cashProportion[3]
 UP BND1      cashProportion[3]  1
 BV BND1      x[1,1]  
 BV BND1      x[1,2]  
 BV BND1      x[1,3]  
 BV BND1      x[1,4]  
 BV BND1      x[1,5]  
 BV BND1      x[1,6]  
 BV BND1      x[1,7]  
 BV BND1      x[1,8]  
 BV BND1      x[1,9]  
 BV BND1      x[1,10] 
 BV BND1      x[1,11] 
 BV BND1      x[1,12] 
 BV BND1      x[1,13] 
 BV BND1      x[1,14] 
 BV BND1      x[1,15] 
 BV BND1      x[1,16] 
 BV BND1      x[1,17] 
 BV BND1      x[2,1]  
 BV BND1      x[2,2]  
 BV BND1      x[2,3]  
 BV BND1      x[2,4]  
 BV BND1      x[2,5]  
 BV BND1      x[2,6]  
 BV BND1      x[2,7]  
 BV BND1      x[2,8]  
 BV BND1      x[2,9]  
 BV BND1      x[2,10] 
 BV BND1      x[2,11] 
 BV BND1      x[2,12] 
 BV BND1      x[2,13] 
 BV BND1      x[2,14] 
 BV BND1      x[2,15] 
 BV BND1      x[2,16] 
 BV BND1      x[2,17] 
 BV BND1      x[3,1]  
 BV BND1      x[3,2]  
 BV BND1      x[3,3]  
 BV BND1      x[3,4]  
 BV BND1      x[3,5]  
 BV BND1      x[3,6]  
 BV BND1      x[3,7]  
 BV BND1      x[3,8]  
 BV BND1      x[3,9]  
 BV BND1      x[3,10] 
 BV BND1      x[3,11] 
 BV BND1      x[3,12] 
 BV BND1      x[3,13] 
 BV BND1      x[3,14] 
 BV BND1      x[3,15] 
 BV BND1      x[3,16] 
 BV BND1      x[3,17] 
ENDATA
